*SENSE:Maximize
NAME          MODEL
ROWS
 N  OBJ
 L  C0000000
 L  C0000001
 L  C0000002
COLUMNS
    X0000001  C0000000   2.000000000000e+00
    X0000001  C0000001   4.000000000000e+00
    X0000001  C0000002   1.000000000000e+00
    X0000001  OBJ        5.000000000000e+00
    X0000001  C0000000   2.000000000000e+00
    X0000001  C0000001   4.000000000000e+00
    X0000001  C0000002   1.000000000000e+00
    X0000001  OBJ        4.000000000000e+00
RHS
    RHS       C0000000   4.000000000000e+01
    RHS       C0000001   8.000000000000e+01
    RHS       C0000002   5.000000000000e+01
BOUNDS
ENDATA
